%datafile

% --- Parámetros por producto (extensión C3) ---
% P1: producto estándar, mismo perfil que el caso original (VALOR=150, dureza [3.0, 6.0])
% P2: producto premium, mejor precio pero rango de dureza más estrecho
VALOR_p = [150, 170];
MinD_p  = [3.0, 4.0];
MaxD_p  = [6.0, 5.5];

dureza = [8.8, 6.1, 2.0, 4.2, 5.0];
precios = [| 110, 120, 130, 110, 115
           | 130, 130, 110,  90, 115
           | 110, 140, 130, 100,  95
           | 120, 110, 120, 120, 125
           | 100, 120, 150, 110, 105
           |  90, 100, 140,  80, 135 |];

MAXV = 200;
MAXN = 250;

PV = 10;

MCAP = 1000;

CA = 5;

MinB = 100000;

inicial = [500, 500, 500, 500, 500];

%Nuevos

K = [0, 0, 0, 0, 0, 0];

T = [| 0, 0, 0, 0, 0
     | 0, 0, 0, 0, 0
     | 0, 0, 0, 0, 0
     | 0, 0, 0, 0, 0
     | 0, 0, 0, 0, 0
     | 0, 0, 0, 0, 0 |];


% CASO ENUNCIADO

% VEG1 -> ...., ----, ----, ----, ----
% VEG2 -> ----, ...., ----, ----, ----
% ANV1 -> VEG1, ----, ...., ----, ----
% ANV2 -> VEG1, ----, ----, ...., ----
% ANV3 -> ----, ----, ----, ----, ....
requiere = [| false, false, false, false, false
            | false, false, false, false, false
            | true,  false, false, false, false
            | true,  false, false, false, false
            | false, false, false, false, false |];

/*
% VEG1 y ANV3 interdependientes
% VEG2 requiere ANV3
% ANV2 requiere ANV1

% VEG1 -> ...., ----, ----, ----, ANV3
% VEG2 -> ----, ...., ----, ----, ANV3
% ANV1 -> ----, ----, ...., ----, ----
% ANV2 -> ----, ----, ANV1, ...., ----
% ANV3 -> VEG1, ----, ----, ----, ....
requiere = [| false, false, false, false, true
            | false, false, false, false, true
            | false, false, false, false, false
            | false, false, true,  false, false
            | true,  false, false, false, false |];
*/

% CASO ENUNCIADO

% VEG1 -> ...., ----, ----, ----, ----
% VEG2 -> ----, ...., ----, ----, ----
% ANV1 -> ----, ----, ...., ----, ----
% ANV2 -> ----, ----, ----, ...., ----
% ANV3 -> VEG1, ----, ----, ----, ....
reemplazo = [| false, false, false, false, false
             | false, false, false, false, false
             | false, false, false, false, false
             | false, false, false, false, false
             | true,  false, false, false, false |];
